
Gurobi 9.5.0 (win64) logging started Tue Dec  7 12:39:23 2021

Set parameter LogFile to value "../results/logs/log_2021_12_07_12_26.csv_6_55.log"
Set parameter Method to value 3
Gurobi Optimizer version 9.5.0 build v9.5.0rc5 (win64)
Thread count: 6 physical cores, 12 logical processors, using up to 12 threads
Optimize a model with 1039 rows, 9882 columns and 16749 nonzeros
Model fingerprint: 0x0fa9dcbc
Variable types: 4941 continuous, 4941 integer (4941 binary)
Coefficient statistics:
  Matrix range     [1e+00, 6e+00]
  Objective range  [1e+00, 1e+00]
  Bounds range     [1e+00, 1e+00]
  RHS range        [1e+00, 6e+01]
Found heuristic solution: objective -0.0000000
Presolve removed 585 rows and 9150 columns
Presolve time: 0.02s
Presolved: 454 rows, 732 columns, 2692 nonzeros
Extracted 154 lazy constraints
Variable types: 413 continuous, 319 integer (317 binary)

Concurrent LP optimizer: primal simplex, dual simplex, and barrier
Showing barrier log only...

Root barrier log...

Ordering time: 0.00s

Barrier statistics:
 AA' NZ     : 5.250e+02
 Factor NZ  : 1.997e+03
 Factor Ops : 2.133e+04 (less than 1 second per iteration)
 Threads    : 1

Barrier performed 0 iterations in 0.04 seconds (0.02 work units)
Barrier solve interrupted - model solved by another algorithm


Solved with dual simplex

Root relaxation: objective 3.340000e+02, 137 iterations, 0.00 seconds (0.00 work units)

    Nodes    |    Current Node    |     Objective Bounds      |     Work
 Expl Unexpl |  Obj  Depth IntInf | Incumbent    BestBd   Gap | It/Node Time

     0     0  121.36188    0  155   -0.00000  121.36188      -     -    0s
     0     0   68.49923    0   69   -0.00000   68.49923      -     -    0s
     0     0   68.12673    0   69   -0.00000   68.12673      -     -    0s
     0     0   68.08752    0   68   -0.00000   68.08752      -     -    0s
     0     0   65.87355    0   33   -0.00000   65.87355      -     -    0s
     0     0   65.52650    0   27   -0.00000   65.52650      -     -    0s
     0     0   65.49922    0   31   -0.00000   65.49922      -     -    0s
     0     0   65.02156    0   19   -0.00000   65.02156      -     -    0s
     0     0   64.85341    0   26   -0.00000   64.85341      -     -    0s
     0     0   64.81790    0   23   -0.00000   64.81790      -     -    0s
     0     0   64.35337    0   31   -0.00000   64.35337      -     -    0s
     0     0   64.35337    0   31   -0.00000   64.35337      -     -    0s
     0     2   64.35337    0   31   -0.00000   64.35337      -     -    0s
H   39    44                      60.0000000   63.90578  6.51%  23.8    0s
H   97    92                      61.0000000   63.90578  4.76%  17.0    0s
H  579   145                      62.0000000   62.91077  1.47%  13.6    0s

Cutting planes:
  Gomory: 57
  Lift-and-project: 12
  Implied bound: 24
  MIR: 140
  RLT: 19
  Relax-and-lift: 14
  Lazy constraints: 146

Explored 595 nodes (9311 simplex iterations) in 0.39 seconds (0.26 work units)
Thread count was 12 (of 12 available processors)

Solution count 4: 62 61 60 -0 

Optimal solution found (tolerance 1.00e-04)
Best objective 6.200000000000e+01, best bound 6.200000000000e+01, gap 0.0000%
